% demand
num_movements = 39;
loading_factor = [1850, 1400, 1550, 850, 1000, 1400, 1050, 1200, 1100, 1600, 1250, 1850, 850, 1000, 900, 1300, 1850, 1450, 900, 1850, 1200, 1700, 1800, 1500, 1450, 1450, 1750, 1200, 1450, 800, 1450, 1950, 1200, 1750, 1450, 850, 1200, 1500, 1250];
pickup_time = [0, 0, 1, 1, 1, 1, 1, 1, 1, 1, 1, 2, 2, 2, 2, 3, 3, 3, 3, 3, 4, 4, 4, 4, 4, 4, 5, 5, 5, 7, 7, 7, 7, 7, 7, 7, 8, 10, 10];
delivery_time = [1, 1, 3, 2, 2, 3, 2, 2, 3, 2, 5, 3, 4, 4, 3, 4, 4, 4, 4, 4, 7, 7, 7, 5, 7, 5, 7, 7, 9, 10, 11, 9, 11, 11, 8, 8, 9, 11, 11];

% transporter definition
total_capacity = 11000;
num_decks = 4;
capacity = [3000, 3000, 1000, 4000];

% ways out of decks
num_ways_out = 2;
paths_out = array3d(decks, ways_out, decks, [
% ways out of deck d1
2, 4, 0, 0, 3, 4, 0, 0, 

% ways out of deck d2
4, 0, 0, 0, 0, 0, 0, 0,	

% ways out of deck d3
4, 0, 0, 0, 0, 0, 0, 0,	

% ways out of deck d4
0, 0, 0, 0,	0, 0, 0, 0,	

]);

